%-----------------------------------------------------------------------------%
% Dual Arm Multi Capacity Multi Tool Scheduling / Routing
% Assembly Configuration
% Auto Generated by python script, authored by Johan Ludde Wessen 
%-----------------------------------------------------------------------------%


task_durations = [|27, 27, 30, 28, 28, 25, 33, 24, 48, 58, 55, 56, 39, 44, 44, 52, 28, 28, 37,  5,  6,  5,  8,  7,  7,  5
                  |23, 30, 26, 34, 24, 28, 27, 24, 46, 50, 59, 60, 46, 50, 51, 49, 25, 34, 33,  6,  4,  7,  6,  8,  5,  6
                  |];


TRAY_TASKS = 1..6;
CAMERA_TASKS = 17..19;
OUTPUT_TASKS = { 16 };


empty_gripper_tasks = 20..26;


gripper_pick_tasks_orders = [|1, 9, -1
|2, 10, -1
|3, 11, -1
|7, 15, -1
|8, 16, -1
|];

suction_pick_tasks_orders = [|4, 17, 12, -1
|5, 18, 13, -1
|6, 19, 14, -1
|];

fixture_task_orders = [|9, 20, 12, 23, 13, 24, 10, 21, 7, -1
|14, 25, 11, 22, 15, 26, 8, -1, -1, -1
|];

